 -----------------------------
 solving MaxCut_10 by bc_rootRelax  ... 
 -----------------------------
Version identifier: 22.1.0.0 | 2022-03-09 | 1a383f8ce
CPXPARAM_Threads                                 1
CPXPARAM_MIP_Limits_Nodes                        0
Generic callback                                 0x40
Found incumbent of value 0.000000 after 0.00 sec. (0.01 ticks)
Tried aggregator 1 time.
Reduced MIP has 90 rows, 55 columns, and 270 nonzeros.
Reduced MIP has 10 binaries, 0 generals, 0 SOSs, and 0 indicators.
Presolve time = 0.00 sec. (0.10 ticks)
Probing time = 0.00 sec. (0.02 ticks)
Tried aggregator 1 time.
Detecting symmetries...
Reduced MIP has 90 rows, 55 columns, and 270 nonzeros.
Reduced MIP has 55 binaries, 0 generals, 0 SOSs, and 0 indicators.
Presolve time = 0.00 sec. (0.15 ticks)
Probing time = 0.00 sec. (0.02 ticks)
MIP emphasis: balance optimality and feasibility.
MIP search method: dynamic search.
Parallel mode: none, using 1 thread.
Root relaxation solution time = 0.00 sec. (0.14 ticks)

        Nodes                                         Cuts/
   Node  Left     Objective  IInf  Best Integer    Best Bound    ItCnt     Gap

*     0+    0                            0.0000   -34033.0000              --- 
      0     0   -34033.0000    10        0.0000   -34033.0000       18     --- 
      0     0   -32092.7500    18        0.0000      Cuts: 26       46     --- 
      0     0   -30642.2500    27        0.0000      Cuts: 36       87     --- 
      0     0   -30347.0500    34        0.0000  ZeroHalf: 27      121     --- 
*     0+    0                        -6687.0000   -30347.0500           353.82%
      0     0   -29771.7000    43    -6687.0000      Cuts: 21      155  345.22%
*     0+    0                        -7148.0000   -29771.7000           316.50%
      0     0   -29186.8538    51    -7148.0000      Cuts: 26      201  308.32%
*     0+    0                       -15936.0000   -29186.8538            83.15%
Detecting symmetries...
      0     0   -28979.5053    49   -15936.0000  ZeroHalf: 19      231   81.85%
*     0+    0                       -19232.0000   -28979.5053            50.68%
      0     0   -28766.1071    46   -19232.0000  ZeroHalf: 22      265   49.57%
      0     0   -28618.8386    46   -19232.0000      Cuts: 21      294   48.81%
      0     0   -28506.6031    52   -19232.0000  ZeroHalf: 17      327   48.22%
      0     0   -28428.8559    52   -19232.0000  ZeroHalf: 13      352   47.82%
      0     0   -28405.4295    53   -19232.0000      Cuts: 14      368   47.70%
      0     0   -28388.6943    53   -19232.0000   ZeroHalf: 3      385   47.61%
      0     0   -28371.1023    53   -19232.0000   ZeroHalf: 6      401   47.52%
      0     0   -28358.3068    55   -19232.0000       Cuts: 9      422   47.45%
      0     0   -28344.5473    51   -19232.0000   ZeroHalf: 8      440   47.38%
      0     0   -28321.7103    55   -19232.0000   ZeroHalf: 3      461   47.26%
      0     0   -28311.0397    55   -19232.0000  ZeroHalf: 17      478   47.21%
      0     0   -28300.3061    53   -19232.0000  ZeroHalf: 10      496   47.15%
      0     0   -28284.7431    51   -19232.0000   ZeroHalf: 7      518   47.07%
      0     0   -28251.9819    54   -19232.0000   ZeroHalf: 6      542   46.90%
      0     0   -28226.3519    53   -19232.0000  ZeroHalf: 10      566   46.77%
      0     0   -28213.3504    52   -19232.0000   ZeroHalf: 5      586   46.70%
      0     0   -28204.5577    54   -19232.0000   ZeroHalf: 5      599   46.65%
      0     0   -28187.7445    52   -19232.0000   ZeroHalf: 6      623   46.57%
      0     0   -28158.9756    53   -19232.0000  ZeroHalf: 12      648   46.42%
      0     0   -28061.9375    52   -19232.0000  ZeroHalf: 10      677   45.91%
      0     0   -28032.7362    53   -19232.0000   ZeroHalf: 8      692   45.76%
      0     0   -27993.3681    52   -19232.0000      Cuts: 14      720   45.56%
      0     0   -27968.5162    54   -19232.0000  ZeroHalf: 12      736   45.43%
      0     0   -27952.0769    53   -19232.0000   ZeroHalf: 6      753   45.34%
      0     0   -27929.4349    53   -19232.0000   ZeroHalf: 7      779   45.22%
      0     0   -27916.6643    53   -19232.0000   ZeroHalf: 7      792   45.16%
      0     0   -27884.5329    53   -19232.0000   ZeroHalf: 6      813   44.99%
      0     0   -27866.8839    52   -19232.0000      Cuts: 11      831   44.90%
      0     0   -27864.3435    54   -19232.0000   ZeroHalf: 3      839   44.89%
      0     0   -27845.9717    52   -19232.0000  ZeroHalf: 11      868   44.79%
      0     0   -27776.4821    54   -19232.0000   ZeroHalf: 4      900   44.43%
      0     0   -27745.9212    54   -19232.0000  ZeroHalf: 12      919   44.27%
      0     0   -27693.1843    54   -19232.0000  ZeroHalf: 10      950   44.00%
      0     0   -27657.5178    53   -19232.0000   ZeroHalf: 8      973   43.81%
      0     0   -27625.1220    52   -19232.0000   ZeroHalf: 3     1005   43.64%
      0     0   -27607.3084    54   -19232.0000       Cuts: 8     1030   43.55%
      0     0   -27568.3740    52   -19232.0000   ZeroHalf: 8     1049   43.35%
      0     0   -27540.4223    53   -19232.0000  ZeroHalf: 19     1077   43.20%
      0     0   -27519.9877    51   -19232.0000   ZeroHalf: 6     1098   43.09%
      0     0   -27512.2063    53   -19232.0000   ZeroHalf: 4     1109   43.05%

Zero-half cuts applied:  41
Gomory fractional cuts applied:  1

Root node processing (before b&c):
  Real time             =    0.52 sec. (82.43 ticks)
Sequential b&c:
  Real time             =    0.00 sec. (0.00 ticks)
                          ------------
Total (root+branch&cut) =    0.52 sec. (82.43 ticks)



Version identifier: 22.1.0.0 | 2022-03-09 | 1a383f8ce
CPXPARAM_Threads                                 1
CPXPARAM_MIP_Limits_Nodes                        0
Generic callback                                 0x40
5 of 5 MIP starts provided solutions.
MIP start 'm1' defined initial solution with objective -9064.0000.
Tried aggregator 1 time.
MIP Presolve eliminated 40 rows and 20 columns.
Reduced MIP has 50 rows, 35 columns, and 150 nonzeros.
Reduced MIP has 10 binaries, 0 generals, 0 SOSs, and 0 indicators.
Presolve time = 0.00 sec. (0.08 ticks)
Probing time = 0.00 sec. (0.01 ticks)
Tried aggregator 1 time.
Detecting symmetries...
Reduced MIP has 50 rows, 35 columns, and 150 nonzeros.
Reduced MIP has 35 binaries, 0 generals, 0 SOSs, and 0 indicators.
Presolve time = 0.00 sec. (0.08 ticks)
Probing time = 0.00 sec. (0.01 ticks)
MIP emphasis: balance optimality and feasibility.
MIP search method: dynamic search.
Parallel mode: none, using 1 thread.
Root relaxation solution time = 0.00 sec. (0.06 ticks)

        Nodes                                         Cuts/
   Node  Left     Objective  IInf  Best Integer    Best Bound    ItCnt     Gap

*     0+    0                        -9064.0000   -15982.0000            76.32%
      0     0   -15982.0000    10    -9064.0000   -15982.0000       10   76.32%
      0     0   -15152.5000    13    -9064.0000      Cuts: 16       22   67.17%
      0     0   -14493.6667    16    -9064.0000      Cuts: 12       46   59.90%
*     0+    0                       -12950.0000   -14493.6667            11.92%
      0     0   -14487.4000    19   -12950.0000  ZeroHalf: 10       49   11.87%
      0     0   -14438.0000    15   -12950.0000  ZeroHalf: 12       59   11.49%
      0     0   -14284.0833    21   -12950.0000  ZeroHalf: 11       78   10.30%
Detecting symmetries...
      0     0   -14158.0000    16   -12950.0000  ZeroHalf: 10       87    9.33%
      0     0   -14057.3333    18   -12950.0000  ZeroHalf: 13       96    8.55%
      0     0   -13993.4717    27   -12950.0000      Cuts: 14      109    8.06%
      0     0   -13940.7500    18   -12950.0000   ZeroHalf: 4      119    7.65%
      0     0   -13860.1000    21   -12950.0000      Cuts: 12      132    7.03%
      0     0   -13798.2500    22   -12950.0000  ZeroHalf: 15      153    6.55%
      0     0   -13762.5789    26   -12950.0000  ZeroHalf: 12      164    6.27%
      0     0   -13683.0000    17   -12950.0000      Cuts: 10      172    5.66%
      0     0   -13656.5000    18   -12950.0000      Cuts: 14      178    5.46%
      0     0   -13648.1000    23   -12950.0000  ZeroHalf: 12      182    5.39%
      0     0   -13615.1429    23   -12950.0000   ZeroHalf: 6      187    5.14%
      0     0   -13611.0000    22   -12950.0000       Cuts: 9      192    5.10%
      0     0   -13596.7059    24   -12950.0000   ZeroHalf: 7      204    4.99%
      0     0   -13539.8667    28   -12950.0000  ZeroHalf: 20      222    4.55%
      0     0   -13492.6364    27   -12950.0000   ZeroHalf: 5      238    4.19%
      0     0   -13436.0909    29   -12950.0000  ZeroHalf: 10      248    3.75%
      0     0   -13388.5455    23   -12950.0000   ZeroHalf: 5      265    3.39%
      0     0   -13370.4444    27   -12950.0000   ZeroHalf: 5      278    3.25%
      0     0   -13365.6253    27   -12950.0000   ZeroHalf: 6      287    3.21%
      0     0   -13358.9856    31   -12950.0000   ZeroHalf: 3      296    3.16%
      0     0   -13349.7625    30   -12950.0000  ZeroHalf: 12      304    3.09%
      0     0   -13330.7333    28   -12950.0000   ZeroHalf: 6      318    2.94%
      0     0   -13310.8960    33   -12950.0000   ZeroHalf: 8      336    2.79%
      0     0   -13305.9550    32   -12950.0000       Cuts: 6      348    2.75%
      0     0   -13302.4809    34   -12950.0000   ZeroHalf: 5      359    2.72%
      0     0   -13296.9438    32   -12950.0000  ZeroHalf: 11      371    2.68%
      0     0   -13285.2104    33   -12950.0000  ZeroHalf: 11      383    2.59%
      0     0   -13279.6539    32   -12950.0000  ZeroHalf: 10      395    2.55%
      0     0   -13278.1293    32   -12950.0000   ZeroHalf: 4      410    2.53%

Zero-half cuts applied:  20

Root node processing (before b&c):
  Real time             =    0.03 sec. (17.61 ticks)
Sequential b&c:
  Real time             =    0.00 sec. (0.00 ticks)
                          ------------
Total (root+branch&cut) =    0.03 sec. (17.61 ticks)



Version identifier: 22.1.0.0 | 2022-03-09 | 1a383f8ce
CPXPARAM_Threads                                 1
CPXPARAM_MIP_Limits_Nodes                        0
Generic callback                                 0x40
6 of 6 MIP starts provided solutions.
MIP start 'm1' defined initial solution with objective -1.6181e+08.
Tried aggregator 1 time.
Reduced MIP has 90 rows, 55 columns, and 270 nonzeros.
Reduced MIP has 10 binaries, 0 generals, 0 SOSs, and 0 indicators.
Presolve time = 0.00 sec. (0.10 ticks)
Probing time = 0.00 sec. (0.02 ticks)
Tried aggregator 1 time.
Detecting symmetries...
Reduced MIP has 90 rows, 55 columns, and 270 nonzeros.
Reduced MIP has 55 binaries, 0 generals, 0 SOSs, and 0 indicators.
Presolve time = 0.00 sec. (0.15 ticks)
Probing time = 0.00 sec. (0.02 ticks)
MIP emphasis: balance optimality and feasibility.
MIP search method: dynamic search.
Parallel mode: none, using 1 thread.
Root relaxation solution time = 0.00 sec. (0.14 ticks)

        Nodes                                         Cuts/
   Node  Left     Objective  IInf  Best Integer    Best Bound    ItCnt     Gap

*     0+    0                      -1.61812e+08  -2.08575e+08            28.90%
      0     0  -2.08575e+08    10  -1.61812e+08  -2.08575e+08       18   28.90%
      0     0  -2.04267e+08    16  -1.61812e+08      Cuts: 26       40   26.24%
      0     0  -1.94894e+08    21  -1.61812e+08      Cuts: 23       75   20.45%
      0     0  -1.87465e+08    24  -1.61812e+08  ZeroHalf: 28      110   15.85%
      0     0  -1.86316e+08    28  -1.61812e+08  ZeroHalf: 20      120   15.14%
      0     0  -1.83540e+08    38  -1.61812e+08   ZeroHalf: 9      148   13.43%
*     0+    0                      -1.63631e+08  -1.83540e+08            12.17%
Detecting symmetries...
      0     0  -1.82880e+08    45  -1.63631e+08  ZeroHalf: 14      167   11.76%
      0     0  -1.81613e+08    41  -1.63631e+08  ZeroHalf: 18      187   10.99%
      0     0  -1.80694e+08    45  -1.63631e+08  ZeroHalf: 18      207   10.43%
      0     0  -1.79809e+08    45  -1.63631e+08  ZeroHalf: 14      224    9.89%
      0     0  -1.79228e+08    47  -1.63631e+08  ZeroHalf: 13      245    9.53%
      0     0  -1.78862e+08    48  -1.63631e+08  ZeroHalf: 13      258    9.31%
      0     0  -1.78615e+08    50  -1.63631e+08   ZeroHalf: 7      271    9.16%
      0     0  -1.78379e+08    41  -1.63631e+08      Cuts: 20      286    9.01%
      0     0  -1.78314e+08    28  -1.63631e+08  ZeroHalf: 12      289    8.97%
      0     0  -1.78206e+08    51  -1.63631e+08   ZeroHalf: 3      305    8.91%
      0     0  -1.78139e+08    29  -1.63631e+08  ZeroHalf: 12      311    8.87%
      0     0  -1.77999e+08    52  -1.63631e+08   ZeroHalf: 6      329    8.78%
      0     0  -1.77766e+08    52  -1.63631e+08   ZeroHalf: 7      351    8.64%
      0     0  -1.77503e+08    52  -1.63631e+08   ZeroHalf: 5      363    8.48%
      0     0  -1.77325e+08    53  -1.63631e+08       Cuts: 8      378    8.37%
      0     0  -1.77248e+08    50  -1.63631e+08   ZeroHalf: 6      403    8.32%
      0     0  -1.77199e+08    47  -1.63631e+08  ZeroHalf: 10      413    8.29%
      0     0  -1.77124e+08    51  -1.63631e+08   ZeroHalf: 8      430    8.25%
      0     0  -1.77035e+08    51  -1.63631e+08   ZeroHalf: 4      449    8.19%
      0     0  -1.76979e+08    52  -1.63631e+08   ZeroHalf: 7      463    8.16%
      0     0  -1.76904e+08    48  -1.63631e+08   ZeroHalf: 5      479    8.11%
      0     0  -1.76755e+08    48  -1.63631e+08      Cuts: 14      500    8.02%
      0     0  -1.76724e+08    48  -1.63631e+08   ZeroHalf: 4      509    8.00%
      0     0  -1.76569e+08    52  -1.63631e+08   ZeroHalf: 6      527    7.91%
      0     0  -1.76537e+08    52  -1.63631e+08   ZeroHalf: 5      543    7.89%

Zero-half cuts applied:  32
Lift and project cuts applied:  2

Root node processing (before b&c):
  Real time             =    0.06 sec. (33.39 ticks)
Sequential b&c:
  Real time             =    0.00 sec. (0.00 ticks)
                          ------------
Total (root+branch&cut) =    0.06 sec. (33.39 ticks)



Version identifier: 22.1.0.0 | 2022-03-09 | 1a383f8ce
CPXPARAM_Threads                                 1
CPXPARAM_MIP_Limits_Nodes                        0
Generic callback                                 0x40
3 of 7 MIP starts provided solutions.
MIP start 'm1' defined initial solution with objective -14637.0000.
Tried aggregator 1 time.
MIP Presolve eliminated 18 rows and 10 columns.
Reduced MIP has 72 rows, 45 columns, and 216 nonzeros.
Reduced MIP has 9 binaries, 0 generals, 0 SOSs, and 0 indicators.
Presolve time = 0.00 sec. (0.09 ticks)
Probing time = 0.00 sec. (0.01 ticks)
Tried aggregator 1 time.
Detecting symmetries...
Reduced MIP has 72 rows, 45 columns, and 216 nonzeros.
Reduced MIP has 45 binaries, 0 generals, 0 SOSs, and 0 indicators.
Presolve time = 0.00 sec. (0.12 ticks)
Probing time = 0.00 sec. (0.01 ticks)
MIP emphasis: balance optimality and feasibility.
MIP search method: dynamic search.
Parallel mode: none, using 1 thread.
Root relaxation solution time = 0.00 sec. (0.09 ticks)

        Nodes                                         Cuts/
   Node  Left     Objective  IInf  Best Integer    Best Bound    ItCnt     Gap

*     0+    0                       -18061.0000   -34033.0000            88.43%
      0     0   -30615.0000     9   -18061.0000   -30615.0000       10   69.51%
      0     0   -28539.7500    19   -18061.0000      Cuts: 25       35   58.02%
      0     0   -27463.5000    17   -18061.0000      Cuts: 27       54   52.06%
      0     0   -27217.3750    27   -18061.0000  ZeroHalf: 18       67   50.70%
      0     0   -26883.9167    29   -18061.0000  ZeroHalf: 26       89   48.85%
      0     0   -26652.3699    37   -18061.0000  ZeroHalf: 21      114   47.57%
Detecting symmetries...
      0     0   -26435.4500    36   -18061.0000  ZeroHalf: 20      139   46.37%
      0     0   -26203.4458    42   -18061.0000  ZeroHalf: 25      159   45.08%
*     0+    0                       -18219.0000   -26203.4458            43.82%
      0     0   -26105.6116    41   -18219.0000  ZeroHalf: 22      181   43.29%
      0     0   -26041.4182    42   -18219.0000  ZeroHalf: 20      199   42.94%
*     0+    0                       -18715.0000   -26041.4182            39.15%
      0     0   -26018.0065    45   -18715.0000   ZeroHalf: 6      218   39.02%
      0     0   -25967.6833    43   -18715.0000  ZeroHalf: 10      245   38.75%
*     0+    0                       -19419.0000   -25967.6833            33.72%
      0     0   -25909.5482    42   -19419.0000  ZeroHalf: 25      268   33.42%
      0     0   -25871.1447    44   -19419.0000   ZeroHalf: 9      281   33.23%
      0     0   -25846.3375    43   -19419.0000   ZeroHalf: 9      299   33.10%
      0     0   -25745.8937    43   -19419.0000   ZeroHalf: 8      323   32.58%
      0     0   -25703.4722    43   -19419.0000  ZeroHalf: 12      340   32.36%
      0     0   -25674.2927    45   -19419.0000  ZeroHalf: 12      352   32.21%
      0     0   -25665.5501    44   -19419.0000   ZeroHalf: 3      364   32.17%
      0     0   -25656.4104    45   -19419.0000   ZeroHalf: 4      376   32.12%
      0     0   -25646.6855    45   -19419.0000   ZeroHalf: 8      388   32.07%
      0     0   -25574.1597    45   -19419.0000   ZeroHalf: 3      410   31.70%
      0     0   -25537.7702    44   -19419.0000  ZeroHalf: 17      431   31.51%
      0     0   -25532.5236    45   -19419.0000   ZeroHalf: 6      445   31.48%
      0     0   -25517.9925    44   -19419.0000       Cuts: 7      463   31.41%
      0     0   -25515.1604    44   -19419.0000   ZeroHalf: 6      473   31.39%
*     0+    0                       -19554.0000   -25515.1604            30.49%

Zero-half cuts applied:  32
Lift and project cuts applied:  1
Gomory fractional cuts applied:  2

Root node processing (before b&c):
  Real time             =    0.05 sec. (30.26 ticks)
Sequential b&c:
  Real time             =    0.00 sec. (0.00 ticks)
                          ------------
Total (root+branch&cut) =    0.05 sec. (30.26 ticks)



